unsat
(:eliminated-applications 2
 :eliminated-vars         1
 :max-memory              18.11
 :memory                  17.94
 :nlsat-conflicts         3
 :nlsat-learned-added     2
 :nlsat-propagations      6
 :nlsat-stages            3
 :num-allocs              5534
 :rlimit-count            4173
 :time                    0.00
 :total-time              0.01)
